&CONTROL
  calculation = 'scf'
  etot_conv_thr =   2.4000000000d-8
  forc_conv_thr =   1.0000000000d-04
  outdir = './out/'
  pseudo_dir = '.'
  tprnfor = .true.
  tstress = .true.
  verbosity = 'high'
/
&SYSTEM
  degauss =   1.4699723600d-02
  ecutwfc =   223.307
  ibrav = 0
  nat = 24
  nosym = .false.
  ntyp = 2
/
&ELECTRONS
  conv_thr =   4.8000000000d-07
  electron_maxstep = 80
  mixing_beta =   4.0000000000d-01
/
ATOMIC_SPECIES
O      15.9994 O.upf
Si     28.0855 Si.upf
ATOMIC_POSITIONS crystal
Si           0.0000000000       0.0000000000       0.0000000000 
Si           0.2500000000       0.2500000000       0.2500000000 
Si           0.7500000000       0.2500000000       0.7500000000 
Si           0.2500000000       0.7500000000       0.7500000000 
Si           0.7500000000       0.7500000000       0.2500000000 
Si           0.0000000000       0.5000000000       0.5000000000 
Si           0.5000000000       0.0000000000       0.5000000000 
Si           0.5000000000       0.5000000000       0.0000000000 
O            0.1250000000       0.1250000000       0.1250000000 
O            0.8750000000       0.1250000000       0.8750000000 
O            0.1250000000       0.8750000000       0.8750000000 
O            0.8750000000       0.8750000000       0.1250000000 
O            0.1250000000       0.6250000000       0.6250000000 
O            0.6250000000       0.1250000000       0.6250000000 
O            0.6250000000       0.6250000000       0.1250000000 
O            0.8750000000       0.6250000000       0.3750000000 
O            0.3750000000       0.1250000000       0.3750000000 
O            0.3750000000       0.6250000000       0.8750000000 
O            0.1250000000       0.3750000000       0.3750000000 
O            0.6250000000       0.8750000000       0.3750000000 
O            0.6250000000       0.3750000000       0.8750000000 
O            0.8750000000       0.3750000000       0.6250000000 
O            0.3750000000       0.8750000000       0.6250000000 
O            0.3750000000       0.3750000000       0.1250000000 
K_POINTS {gamma}
CELL_PARAMETERS angstrom
      7.1200000000       0.0000000000       0.0000000000
      0.0000000000       7.1200000000       0.0000000000
      0.0000000000       0.0000000000       7.1200000000

